Grasp exp. instance_n_15_m_5_id_2.lp tipoLifted 0 szPool 1 nIteration 100 alpha 1 
Academic license - for non-commercial use only
Read LP format model from file ../input/instancesGenerated/instance_n_15_m_5_id_2.lp
Reading time = 0.00 seconds
: 5 rows, 15 columns, 75 nonzeros
Optimize a model with 5 rows, 15 columns and 75 nonzeros
Variable types: 0 continuous, 15 integer (15 binary)
Coefficient statistics:
  Matrix range     [1e+00, 1e+01]
  Objective range  [1e+00, 1e+01]
  Bounds range     [1e+00, 1e+00]
  RHS range        [4e+01, 5e+01]
Found heuristic solution: objective 36.0000000

Explored 0 nodes (0 simplex iterations) in 0.00 seconds
Thread count was 1 (of 8 available processors)

Solution count 1: 36 
No other solutions better than 0

Solution limit reached
Best objective 3.600000000000e+01, best bound -, gap -
C_1:	 6.00 x_1  = 1.000000 + 6.00 x_2  = 0.000000 + 1.00 x_3  = 0.000000 + 4.00 x_4  = 1.000000 + 5.00 x_5  = 0.101545 + 9.00 x_6  = 0.253863 + 9.00 x_7  = 0.112583 + 2.00 x_8  = 1.000000 + 4.00 x_9  = 0.000000 + 1.00 x_10  = 1.000000 + 6.00 x_11  = 1.000000 + 2.00 x_12  = 0.000000 + 7.00 x_13  = 1.000000 + 8.00 x_14  = 0.024283 + 9.00 x_15  = 1.000000 <= 39.00
C_2:	 4.00 x_1  = 1.000000 + 9.00 x_2  = 0.000000 + 2.00 x_3  = 0.000000 + 7.00 x_4  = 1.000000 + 8.00 x_5  = 0.101545 + 7.00 x_6  = 0.253863 + 3.00 x_7  = 0.112583 + 7.00 x_8  = 1.000000 + 7.00 x_9  = 0.000000 + 10.00 x_10  = 1.000000 + 6.00 x_11  = 1.000000 + 5.00 x_12  = 0.000000 + 2.00 x_13  = 1.000000 + 3.00 x_14  = 0.024283 + 1.00 x_15  = 1.000000 <= 40.00
C_3:	 8.00 x_1  = 1.000000 + 9.00 x_2  = 0.000000 + 8.00 x_3  = 0.000000 + 1.00 x_4  = 1.000000 + 4.00 x_5  = 0.101545 + 2.00 x_6  = 0.253863 + 9.00 x_7  = 0.112583 + 5.00 x_8  = 1.000000 + 5.00 x_9  = 0.000000 + 4.00 x_10  = 1.000000 + 5.00 x_11  = 1.000000 + 3.00 x_12  = 0.000000 + 5.00 x_13  = 1.000000 + 3.00 x_14  = 0.024283 + 10.00 x_15  = 1.000000 <= 40.00
C_4:	 6.00 x_1  = 1.000000 + 7.00 x_2  = 0.000000 + 8.00 x_3  = 0.000000 + 7.00 x_4  = 1.000000 + 3.00 x_5  = 0.101545 + 7.00 x_6  = 0.253863 + 6.00 x_7  = 0.112583 + 7.00 x_8  = 1.000000 + 5.00 x_9  = 0.000000 + 2.00 x_10  = 1.000000 + 9.00 x_11  = 1.000000 + 1.00 x_12  = 0.000000 + 7.00 x_13  = 1.000000 + 10.00 x_14  = 0.024283 + 3.00 x_15  = 1.000000 <= 44.00
C_5:	 9.00 x_1  = 1.000000 + 9.00 x_2  = 0.000000 + 3.00 x_3  = 0.000000 + 7.00 x_4  = 1.000000 + 9.00 x_5  = 0.101545 + 9.00 x_6  = 0.253863 + 10.00 x_7  = 0.112583 + 10.00 x_8  = 1.000000 + 3.00 x_9  = 0.000000 + 7.00 x_10  = 1.000000 + 3.00 x_11  = 1.000000 + 9.00 x_12  = 0.000000 + 9.00 x_13  = 1.000000 + 10.00 x_14  = 0.024283 + 1.00 x_15  = 1.000000 <= 54.00
Solution initial: 64.344371 
Number Constraints Used in Cover:5
GRASP Method!
Number cuts repeat: 0
value: 64.344371
Number Constraints Used in Cover:7
GRASP Method!
Number cuts repeat: 0
value: 64.344371
Number Constraints Used in Cover:9
GRASP Method!
Number cuts repeat: 0
value: 64.344371
Number Constraints Used in Cover:11
GRASP Method!
Number cuts repeat: 0
value: 64.344371
Number Constraints Used in Cover:13
GRASP Method!
Number cuts repeat: 0
value: 64.344371
Number Constraints Used in Cover:13
GRASP Method!
Number cuts repeat: 0
value: 64.344371
Number Constraints Used in Cover:15
GRASP Method!
Number cuts repeat: 0
value: 64.344371
Number Constraints Used in Cover:15
GRASP Method!
Number cuts repeat: 0
value: 64.344371
Number Constraints Used in Cover:17
GRASP Method!
Number cuts repeat: 0
value: 64.344371
Number Constraints Used in Cover:19
GRASP Method!
Number cuts repeat: 0
value: 64.344371
Number Constraints Used in Cover:19
GRASP Method!
Number cuts repeat: 0
value: 64.344371
Number Constraints Used in Cover:21
GRASP Method!
Number cuts repeat: 0
value: 64.344371
Number Constraints Used in Cover:21
GRASP Method!
Number cuts repeat: 0
value: 64.292978
Number Constraints Used in Cover:23
GRASP Method!
Number cuts repeat: 0
value: 64.292978
Number Constraints Used in Cover:25
GRASP Method!
Number cuts repeat: 0
value: 64.292978
Number Constraints Used in Cover:27
GRASP Method!
Number cuts repeat: 0
value: 64.292978
Number Constraints Used in Cover:27
GRASP Method!
Number cuts repeat: 0
value: 64.292978
Number Constraints Used in Cover:29
GRASP Method!
Number cuts repeat: 0
value: 64.292978
Number Constraints Used in Cover:29
GRASP Method!
Number cuts repeat: 0
value: 64.276190
Number Constraints Used in Cover:31
GRASP Method!
Number cuts repeat: 0
value: 64.276190
Number Constraints Used in Cover:33
GRASP Method!
Number cuts repeat: 0
value: 64.276190
Number Constraints Used in Cover:35
GRASP Method!
Number cuts repeat: 0
value: 64.276190
Number Constraints Used in Cover:37
GRASP Method!
Number cuts repeat: 0
value: 64.276190
Number Constraints Used in Cover:39
GRASP Method!
Number cuts repeat: 0
value: 64.276190
Number Constraints Used in Cover:41
GRASP Method!
Number cuts repeat: 0
value: 64.276190
Number Constraints Used in Cover:43
GRASP Method!
Number cuts repeat: 0
value: 64.276190
Number Constraints Used in Cover:45
GRASP Method!
Number cuts repeat: 0
value: 64.276190
Number Constraints Used in Cover:47
GRASP Method!
Number cuts repeat: 0
value: 64.276190
Number Constraints Used in Cover:49
GRASP Method!
Number cuts repeat: 0
value: 64.276190
Number Constraints Used in Cover:51
GRASP Method!
Number cuts repeat: 0
value: 64.276190
Number Constraints Used in Cover:53
GRASP Method!
Number cuts repeat: 0
value: 64.276190
Number Constraints Used in Cover:55
GRASP Method!
Number cuts repeat: 0
value: 64.276190
Number Constraints Used in Cover:57
GRASP Method!
Number cuts repeat: 0
value: 64.276190
Number Constraints Used in Cover:59
GRASP Method!
Number cuts repeat: 0
value: 64.276190
Number Constraints Used in Cover:61
GRASP Method!
Number cuts repeat: 0
value: 64.276190
Number Constraints Used in Cover:63
GRASP Method!
Number cuts repeat: 0
value: 64.276190
Number Constraints Used in Cover:65
GRASP Method!
Number cuts repeat: 0
value: 64.276190
Number Constraints Used in Cover:67
GRASP Method!
Number cuts repeat: 0
value: 64.276190
Number Constraints Used in Cover:69
GRASP Method!
Number cuts repeat: 0
value: 64.276190
Number Constraints Used in Cover:71
GRASP Method!
Number cuts repeat: 0
value: 64.276190
Number Constraints Used in Cover:73
GRASP Method!
Number cuts repeat: 0
value: 64.276190
Number Constraints Used in Cover:75
GRASP Method!
Number cuts repeat: 0
value: 64.276190
Number Constraints Used in Cover:78
GRASP Method!
Number cuts repeat: 0
value: 64.276190
Number Constraints Used in Cover:81
GRASP Method!
Number cuts repeat: 0
value: 64.276190
Number Constraints Used in Cover:84
GRASP Method!
Number cuts repeat: 0
value: 64.276190
Number Constraints Used in Cover:86
GRASP Method!
Number cuts repeat: 0
value: 64.276190
Number Constraints Used in Cover:88
GRASP Method!
Number cuts repeat: 0
value: 64.276190
Number Constraints Used in Cover:91
GRASP Method!
Number cuts repeat: 0
value: 64.276190
Number Constraints Used in Cover:94
GRASP Method!
Number cuts repeat: 0
value: 64.276190
Number Constraints Used in Cover:97
GRASP Method!
Number cuts repeat: 0
value: 64.276190
Number Constraints Used in Cover:99
GRASP Method!
Number cuts repeat: 0
value: 64.276190
Number Constraints Used in Cover:101
GRASP Method!
Number cuts repeat: 0
value: 64.276190
Number Constraints Used in Cover:103
GRASP Method!
Number cuts repeat: 0
value: 64.276190
Number Constraints Used in Cover:104
GRASP Method!
Number cuts repeat: 0
value: 64.276190
Number Constraints Used in Cover:106
GRASP Method!
Number cuts repeat: 0
value: 64.276190
Number Constraints Used in Cover:107
GRASP Method!
Number cuts repeat: 0
value: 64.276190
Number Constraints Used in Cover:109
GRASP Method!
Number cuts repeat: 0
value: 64.276190
Number Constraints Used in Cover:111
GRASP Method!
Number cuts repeat: 0
value: 64.276190
Number Constraints Used in Cover:114
GRASP Method!
Number cuts repeat: 0
value: 64.276190
Number Constraints Used in Cover:117
GRASP Method!
Number cuts repeat: 0
value: 64.276190
Number Constraints Used in Cover:119
GRASP Method!
Number cuts repeat: 0
value: 64.276190
Number Constraints Used in Cover:122
GRASP Method!
Number cuts repeat: 0
value: 64.276190
Number Constraints Used in Cover:124
GRASP Method!
Number cuts repeat: 0
value: 64.276190
Number Constraints Used in Cover:126
GRASP Method!
Number cuts repeat: 0
value: 64.276190
Number Constraints Used in Cover:126
GRASP Method!
Number cuts repeat: 0
value: 64.276190
Number Constraints Used in Cover:128
GRASP Method!
Number cuts repeat: 0
value: 64.276190
Number Constraints Used in Cover:130
GRASP Method!
Number cuts repeat: 0
value: 64.276190
Number Constraints Used in Cover:132
GRASP Method!
Number cuts repeat: 0
value: 64.276190
Number Constraints Used in Cover:133
GRASP Method!
Number cuts repeat: 0
value: 64.276190
Number Constraints Used in Cover:136
GRASP Method!
Number cuts repeat: 0
value: 64.276190
Number Constraints Used in Cover:138
GRASP Method!
Number cuts repeat: 0
value: 64.276190
Number Constraints Used in Cover:141
GRASP Method!
Number cuts repeat: 0
value: 64.276190
Number Constraints Used in Cover:143
GRASP Method!
Number cuts repeat: 0
value: 64.276190
Number Constraints Used in Cover:146
GRASP Method!
Number cuts repeat: 0
value: 64.276190
Number Constraints Used in Cover:150
GRASP Method!
Number cuts repeat: 0
value: 64.276190
Number Constraints Used in Cover:154
GRASP Method!
Number cuts repeat: 0
value: 64.276190
Number Constraints Used in Cover:157
GRASP Method!
Number cuts repeat: 0
value: 64.276190
Number Constraints Used in Cover:160
GRASP Method!
Number cuts repeat: 0
value: 64.276190
Number Constraints Used in Cover:163
GRASP Method!
Number cuts repeat: 0
value: 64.276190
Number Constraints Used in Cover:166
GRASP Method!
Number cuts repeat: 0
value: 64.276190
Number Constraints Used in Cover:168
GRASP Method!
Number cuts repeat: 0
value: 64.276190
Number Constraints Used in Cover:171
GRASP Method!
Number cuts repeat: 0
value: 64.276190
Number Constraints Used in Cover:174
GRASP Method!
Number cuts repeat: 0
value: 64.276190
Number Constraints Used in Cover:178
GRASP Method!
Number cuts repeat: 0
value: 64.276190
Number Constraints Used in Cover:181
GRASP Method!
Number cuts repeat: 0
value: 64.276190
Number Constraints Used in Cover:184
GRASP Method!
Number cuts repeat: 0
value: 64.276190
Number Constraints Used in Cover:187
GRASP Method!
Number cuts repeat: 0
value: 64.276190
Number Constraints Used in Cover:190
GRASP Method!
Number cuts repeat: 0
value: 64.276190
Number Constraints Used in Cover:192
GRASP Method!
Number cuts repeat: 0
value: 64.276190
Number Constraints Used in Cover:196
GRASP Method!
Number cuts repeat: 0
value: 64.276190
Number Constraints Used in Cover:199
GRASP Method!
Number cuts repeat: 0
value: 64.276190
Number Constraints Used in Cover:201
GRASP Method!
Number cuts repeat: 0
value: 64.276190
Number Constraints Used in Cover:204
GRASP Method!
Number cuts repeat: 0
value: 64.276190
Number Constraints Used in Cover:208
GRASP Method!
Number cuts repeat: 0
value: 64.276190
Number Constraints Used in Cover:211
GRASP Method!
Number cuts repeat: 0
value: 64.276190
Number Constraints Used in Cover:214
GRASP Method!
Number cuts repeat: 0
value: 64.276190
Number Constraints Used in Cover:216
GRASP Method!
Number cuts repeat: 0
value: 64.276190
Number Constraints Used in Cover:220
GRASP Method!
Number cuts repeat: 0
value: 64.276190
Number Constraints Used in Cover:222
GRASP Method!
Number cuts repeat: 0
value: 64.276190
Number Constraints Used in Cover:225
GRASP Method!
Number cuts repeat: 0
value: 64.276190
Number Constraints Used in Cover:229
GRASP Method!
Number cuts repeat: 0
value: 64.276190
Number Constraints Used in Cover:232
GRASP Method!
Number cuts repeat: 0
value: 64.276190
Number Constraints Used in Cover:235
GRASP Method!
Number cuts repeat: 0
value: 64.276190
Number Constraints Used in Cover:237
GRASP Method!
Number cuts repeat: 0
value: 64.276190
Number Constraints Used in Cover:241
GRASP Method!
Number cuts repeat: 0
value: 64.276190
Number Constraints Used in Cover:245
GRASP Method!
Number cuts repeat: 0
value: 64.276190
Number Constraints Used in Cover:248
GRASP Method!
Number cuts repeat: 0
value: 64.276190
Number Constraints Used in Cover:251
GRASP Method!
Number cuts repeat: 0
value: 64.276190
Number Constraints Used in Cover:253
GRASP Method!
Number cuts repeat: 0
value: 64.276190
Number Constraints Used in Cover:256
GRASP Method!
Number cuts repeat: 0
value: 64.276190
Number Constraints Used in Cover:260
GRASP Method!
Number cuts repeat: 0
value: 64.276190
Number Constraints Used in Cover:262
GRASP Method!
Number cuts repeat: 0
value: 64.276190
Number Constraints Used in Cover:265
GRASP Method!
Number cuts repeat: 0
value: 64.276190
Number Constraints Used in Cover:269
GRASP Method!
Number cuts repeat: 0
value: 64.276190
Number Constraints Used in Cover:272
GRASP Method!
Number cuts repeat: 0
value: 64.276190
Number Constraints Used in Cover:274
GRASP Method!
Number cuts repeat: 0
value: 64.276190
Number Constraints Used in Cover:278
GRASP Method!
Number cuts repeat: 0
value: 64.276190
Number Constraints Used in Cover:280
GRASP Method!
Number cuts repeat: 0
value: 64.276190
Number Constraints Used in Cover:284
GRASP Method!
Number cuts repeat: 0
value: 64.276190
Number Constraints Used in Cover:287
GRASP Method!
Number cuts repeat: 0
value: 64.276190
Number Constraints Used in Cover:289
GRASP Method!
Number cuts repeat: 0
value: 64.276190
Number Constraints Used in Cover:293
GRASP Method!
Number cuts repeat: 0
value: 64.276190
Number Constraints Used in Cover:295
GRASP Method!
Number cuts repeat: 0
value: 64.276190
Number Constraints Used in Cover:299
GRASP Method!
Number cuts repeat: 0
value: 64.276190
Number Constraints Used in Cover:301
GRASP Method!
Number cuts repeat: 0
value: 64.276190
Number Constraints Used in Cover:305
GRASP Method!
Number cuts repeat: 0
value: 64.276190
Number Constraints Used in Cover:307
GRASP Method!
Number cuts repeat: 0
value: 64.276190
Number Constraints Used in Cover:308
GRASP Method!
Number cuts repeat: 0
value: 64.276190
Number Constraints Used in Cover:312
GRASP Method!
Number cuts repeat: 0
value: 64.276190
Number Constraints Used in Cover:314
GRASP Method!
Number cuts repeat: 0
value: 64.276190
Number Constraints Used in Cover:317
GRASP Method!
Number cuts repeat: 0
value: 64.276190
Number Constraints Used in Cover:321
GRASP Method!
Number cuts repeat: 0
value: 64.276190
Number Constraints Used in Cover:324
GRASP Method!
Number cuts repeat: 0
value: 64.276190
Number Constraints Used in Cover:327
GRASP Method!
Number cuts repeat: 0
value: 64.276190
Number Constraints Used in Cover:331
GRASP Method!
Number cuts repeat: 0
value: 64.276190
Number Constraints Used in Cover:335
GRASP Method!
Number cuts repeat: 0
value: 64.276190
Number Constraints Used in Cover:338
GRASP Method!
Number cuts repeat: 0
value: 64.276190
Number Constraints Used in Cover:342
GRASP Method!
Number cuts repeat: 0
value: 64.276190
Number Constraints Used in Cover:345
GRASP Method!
Number cuts repeat: 0
value: 64.276190
Number Constraints Used in Cover:347
GRASP Method!
Number cuts repeat: 0
value: 64.276190
Number Constraints Used in Cover:349
GRASP Method!
Number cuts repeat: 0
value: 64.276190
Number Constraints Used in Cover:352
GRASP Method!
Number cuts repeat: 0
value: 64.276190
Number Constraints Used in Cover:355
GRASP Method!
Number cuts repeat: 0
value: 64.276190
Number Constraints Used in Cover:360
GRASP Method!
Number cuts repeat: 0
value: 64.276190
Number Constraints Used in Cover:363
GRASP Method!
Number cuts repeat: 0
value: 64.276190
Number Constraints Used in Cover:367
GRASP Method!
Number cuts repeat: 0
value: 64.276190
Number Constraints Used in Cover:371
GRASP Method!
Number cuts repeat: 0
value: 64.276190
Number Constraints Used in Cover:376
GRASP Method!
Number cuts repeat: 0
value: 64.276190
Number Constraints Used in Cover:381
GRASP Method!
Number cuts repeat: 0
value: 64.276190
Number Constraints Used in Cover:384
GRASP Method!
Number cuts repeat: 0
value: 64.276190
Number Constraints Used in Cover:389
GRASP Method!
Number cuts repeat: 0
value: 64.276190
Number Constraints Used in Cover:390
GRASP Method!
Number cuts repeat: 0
value: 64.276190
Number Constraints Used in Cover:395
GRASP Method!
Number cuts repeat: 0
value: 64.276190
Number Constraints Used in Cover:398
GRASP Method!
Number cuts repeat: 0
value: 64.276190
Number Constraints Used in Cover:402
GRASP Method!
Number cuts repeat: 0
value: 64.276190
Number Constraints Used in Cover:407
GRASP Method!
Number cuts repeat: 0
value: 64.276190
Number Constraints Used in Cover:411
GRASP Method!
Number cuts repeat: 0
value: 64.276190
Number Constraints Used in Cover:415
GRASP Method!
Number cuts repeat: 0
value: 64.276190
Number Constraints Used in Cover:419
GRASP Method!
Number cuts repeat: 0
value: 64.276190
Number Constraints Used in Cover:423
GRASP Method!
Number cuts repeat: 0
value: 64.276190
Number Constraints Used in Cover:427
GRASP Method!
Number cuts repeat: 0
value: 64.276190
Number Constraints Used in Cover:431
GRASP Method!
Number cuts repeat: 0
value: 64.276190
Number Constraints Used in Cover:435
GRASP Method!
Number cuts repeat: 0
value: 64.276190
Number Constraints Used in Cover:439
GRASP Method!
Number cuts repeat: 0
value: 64.276190
Number Constraints Used in Cover:442
GRASP Method!
Number cuts repeat: 0
value: 64.276190
Number Constraints Used in Cover:444
GRASP Method!
Number cuts repeat: 0
value: 64.276190
Number Constraints Used in Cover:449
GRASP Method!
Number cuts repeat: 0
value: 64.276190
Number Constraints Used in Cover:452
GRASP Method!
Number cuts repeat: 0
value: 64.276190
Number Constraints Used in Cover:454
GRASP Method!
Number cuts repeat: 0
value: 64.276190
Number Constraints Used in Cover:459
GRASP Method!
Number cuts repeat: 0
value: 64.276190
Number Constraints Used in Cover:462
GRASP Method!
Number cuts repeat: 0
value: 64.276190
Number Constraints Used in Cover:464
GRASP Method!
Number cuts repeat: 0
value: 64.276190
Number Constraints Used in Cover:468
GRASP Method!
Number cuts repeat: 0
value: 64.276190
Number Constraints Used in Cover:474
GRASP Method!
Number cuts repeat: 0
value: 64.276190
Number Constraints Used in Cover:477
GRASP Method!
Number cuts repeat: 0
value: 64.276190
Number Constraints Used in Cover:481
GRASP Method!
Number cuts repeat: 0
value: 64.276190
Number Constraints Used in Cover:486
GRASP Method!
Number cuts repeat: 0
value: 64.276190
Number Constraints Used in Cover:491
GRASP Method!
Number cuts repeat: 0
value: 64.276190
Number Constraints Used in Cover:497
GRASP Method!
Number cuts repeat: 0
value: 64.276190
Number Constraints Used in Cover:503
GRASP Method!
Number cuts repeat: 0
value: 64.276190
Number Constraints Used in Cover:505
GRASP Method!
Number cuts repeat: 0
value: 64.276190
Number Constraints Used in Cover:510
GRASP Method!
Number cuts repeat: 0
value: 64.276190
Number Constraints Used in Cover:517
GRASP Method!
Number cuts repeat: 0
value: 64.276190
Number Constraints Used in Cover:520
GRASP Method!
Number cuts repeat: 0
value: 64.276190
Number Constraints Used in Cover:526
GRASP Method!
Number cuts repeat: 0
value: 64.276190
Number Constraints Used in Cover:529
GRASP Method!
Number cuts repeat: 0
value: 64.276190
Number Constraints Used in Cover:534
GRASP Method!
Number cuts repeat: 0
value: 64.276190
Number Constraints Used in Cover:537
GRASP Method!
Number cuts repeat: 0
value: 64.276190
Number Constraints Used in Cover:542
GRASP Method!
Number cuts repeat: 0
value: 64.276190
Number Constraints Used in Cover:545
GRASP Method!
Number cuts repeat: 0
value: 64.276190
Number Constraints Used in Cover:550
GRASP Method!
Number cuts repeat: 0
value: 64.276190
Number Constraints Used in Cover:554
GRASP Method!
Number cuts repeat: 0
value: 64.276190
Number Constraints Used in Cover:558
GRASP Method!
Number cuts repeat: 0
value: 64.276190
Number Constraints Used in Cover:561
GRASP Method!
Number cuts repeat: 0
value: 64.276190
Number Constraints Used in Cover:565
GRASP Method!
Number cuts repeat: 0
value: 64.276190
Number Constraints Used in Cover:571
GRASP Method!
Number cuts repeat: 0
value: 64.276190
Number Constraints Used in Cover:575
GRASP Method!
Number cuts repeat: 0
value: 64.276190
Number Constraints Used in Cover:580
GRASP Method!
Number cuts repeat: 0
value: 64.276190
Number Constraints Used in Cover:585
GRASP Method!
Number cuts repeat: 0
value: 64.276190
Number Constraints Used in Cover:588
GRASP Method!
Number cuts repeat: 0
value: 64.276190
Number Constraints Used in Cover:589
GRASP Method!
Number cuts repeat: 0
value: 64.276190
Number Constraints Used in Cover:594
GRASP Method!
Number cuts repeat: 0
value: 64.276190
Number Constraints Used in Cover:595
GRASP Method!
Number cuts repeat: 0
value: 64.276190
Number Constraints Used in Cover:599
GRASP Method!
Number cuts repeat: 0
value: 64.276190
Number Constraints Used in Cover:601
GRASP Method!
Number cuts repeat: 0
value: 64.276190
Number Constraints Used in Cover:606
GRASP Method!
Number cuts repeat: 0
value: 64.276190
Number Constraints Used in Cover:608
GRASP Method!
Number cuts repeat: 0
value: 64.276190
Number Constraints Used in Cover:611
GRASP Method!
Number cuts repeat: 0
value: 64.276190
Number Constraints Used in Cover:615
GRASP Method!
Number cuts repeat: 0
value: 64.276190
Number Constraints Used in Cover:619
GRASP Method!
Number cuts repeat: 0
value: 64.276190
Number Constraints Used in Cover:621
GRASP Method!
Number cuts repeat: 0
value: 64.276190
Number Constraints Used in Cover:627
GRASP Method!
Number cuts repeat: 0
value: 64.276190
Number Constraints Used in Cover:630
GRASP Method!
Number cuts repeat: 0
value: 64.276190
Number Constraints Used in Cover:635
GRASP Method!
Number cuts repeat: 0
value: 64.276190
Number Constraints Used in Cover:640
GRASP Method!
Number cuts repeat: 0
value: 64.276190
Number Constraints Used in Cover:644
GRASP Method!
Number cuts repeat: 0
value: 64.276190
Number Cuts Final: 644
